Reading model...
...model read.
creating competitive generators file...
...competitive generators recorded.
Loading data...
.. real-time data read.
Compiling instance...
...instance created.
Creating Offer Mitigation (model will solve as dispatch if TRUE)...
...storage offer mitigation file created
Converting model to MPEC...
...converted
NOTE: initial MIP solve with only storage competitive to get feasible solution
Solving...

Welcome to IBM(R) ILOG(R) CPLEX(R) Interactive Optimizer 12.9.0.0
  with Simplex, Mixed Integer & Barrier Optimizers
5725-A06 5725-A29 5724-Y48 5724-Y49 5724-Y54 5724-Y55 5655-Y21
Copyright IBM Corp. 1988, 2019.  All Rights Reserved.

Type 'help' for a list of available commands.
Type 'help' followed by a command name for more
information on commands.

CPLEX> Logfile 'cplex.log' closed.
Logfile 'C:\Users\llavin\Desktop\test826\logs\tmpt0famx_t.cplex.log' open.
CPLEX> New value for parallel optimization mode: -1
CPLEX> New value for mixed integer optimality gap tolerance: 0.001
CPLEX> New value for feasibility tolerance: 1e-09
CPLEX> New value for deterministic time limit in ticks: 150000
CPLEX> Problem 'C:\Users\llavin\Desktop\test826\logs\tmpx3i2a1s7.pyomo.lp' read.
Read time = 0.55 sec. (28.52 ticks)
CPLEX> Problem name         : C:\Users\llavin\Desktop\test826\logs\tmpx3i2a1s7.pyomo.lp
Objective sense      : Maximize
Variables            :  107781  [Nneg: 1,  Box: 44056,  Free: 8928,
                                 Binary: 54796]
Objective nonzeros   :   17555
Linear constraints   :  246901  [Less: 82866,  Greater: 118424,  Equal: 45611]
  Nonzeros           :  618255
  RHS nonzeros       :  135060

Variables            : Min LB: -5000.000        Max UB: 1000000.       
Objective nonzeros   : Min   : 0.008333333      Max   : 3000.000       
Linear constraints   :
  Nonzeros           : Min   : 0.008333333      Max   : 1000000.       
  RHS nonzeros       : Min   : 0.008333333      Max   : 1000000.       
CPLEX> CPXPARAM_Parallel                                -1
CPXPARAM_Simplex_Tolerances_Feasibility          1.0000000000000001e-09
CPXPARAM_DetTimeLimit                            150000
CPXPARAM_MIP_Tolerances_MIPGap                   0.001
Tried aggregator 3 times.
MIP Presolve eliminated 180490 rows and 40664 columns.
MIP Presolve added 6226 rows and 0 columns.
MIP Presolve modified 51107 coefficients.
Aggregator did 25917 substitutions.
Reduced MIP has 46720 rows, 39702 columns, and 156224 nonzeros.
Reduced MIP has 15652 binaries, 0 generals, 0 SOSs, and 0 indicators.
Presolve time = 0.66 sec. (379.51 ticks)
Probing fixed 793 vars, tightened 8672 bounds.
Probing time = 0.39 sec. (14.73 ticks)
Tried aggregator 2 times.
MIP Presolve eliminated 1780 rows and 1587 columns.
MIP Presolve modified 5547 coefficients.
Aggregator did 48 substitutions.
Reduced MIP has 44892 rows, 38067 columns, and 150787 nonzeros.
Reduced MIP has 14859 binaries, 0 generals, 0 SOSs, and 0 indicators.
Presolve time = 0.27 sec. (229.41 ticks)
Probing fixed 1 vars, tightened 393 bounds.
Probing time = 0.52 sec. (18.59 ticks)
Clique table members: 87662.
MIP emphasis: balance optimality and feasibility.
MIP search method: dynamic search.
Parallel mode: opportunistic, using up to 32 threads.
Root relaxation solution time = 0.98 sec. (1789.07 ticks)

        Nodes                                         Cuts/
   Node  Left     Objective  IInf  Best Integer    Best Bound    ItCnt     Gap

      0     0        0.0000     5                      0.0000     9112         
*     0+    0                            0.0000        0.0000             0.00%
      0     0        cutoff              0.0000        0.0000     9112    0.00%
Elapsed time = 3.58 sec. (2922.18 ticks, tree = 0.01 MB, solutions = 1)

Root node processing (before b&c):
  Real time             =    3.61 sec. (2926.07 ticks)
Parallel b&c, 32 threads:
  Real time             =    0.00 sec. (0.00 ticks)
  Sync time (average)   =    0.00 sec.
  Wait time (average)   =    0.00 sec.
                          ------------
Total (root+branch&cut) =    3.61 sec. (2926.07 ticks)

Solution pool: 1 solution saved.

MIP - Integer optimal solution:  Objective =  0.0000000000e+00
Solution time =    3.64 sec.  Iterations = 9112  Nodes = 0
Deterministic time = 2926.38 ticks  (803.73 ticks/sec)

CPLEX> Incumbent solution written to file 'C:\Users\llavin\Desktop\test826\logs\tmpo2pi1r6f.cplex.sol'.
CPLEX> NOTE: no warmstart specified for MIP iteration, default behavior is true
NOTE: resolving with all competitive generators using storage-only solution to warmstart
Solving...

Welcome to IBM(R) ILOG(R) CPLEX(R) Interactive Optimizer 12.9.0.0
  with Simplex, Mixed Integer & Barrier Optimizers
5725-A06 5725-A29 5724-Y48 5724-Y49 5724-Y54 5724-Y55 5655-Y21
Copyright IBM Corp. 1988, 2019.  All Rights Reserved.

Type 'help' for a list of available commands.
Type 'help' followed by a command name for more
information on commands.

CPLEX> Logfile 'cplex.log' closed.
Logfile 'C:\Users\llavin\Desktop\test826\logs\tmpe7i2tlta.cplex.log' open.
CPLEX> New value for parallel optimization mode: -1
CPLEX> New value for mixed integer optimality gap tolerance: 0.001
CPLEX> New value for feasibility tolerance: 1e-09
CPLEX> New value for deterministic time limit in ticks: 150000
CPLEX> Problem 'C:\Users\llavin\Desktop\test826\logs\tmp9drwau8h.pyomo.lp' read.
Read time = 0.55 sec. (28.57 ticks)
CPLEX> MIP start file 'C:\Users\llavin\Desktop\test826\logs\tmpmp0v0wau.cplex.mst' read.
CPLEX> Problem name         : C:\Users\llavin\Desktop\test826\logs\tmp9drwau8h.pyomo.lp
Objective sense      : Maximize
Variables            :  109221  [Nneg: 1,  Box: 45496,  Free: 8928,
                                 Binary: 54796]
Objective nonzeros   :   18947
Linear constraints   :  246901  [Less: 82866,  Greater: 118424,  Equal: 45611]
  Nonzeros           :  618255
  RHS nonzeros       :  135060

Variables            : Min LB: -5000.000        Max UB: 1000000.       
Objective nonzeros   : Min   : 0.008333333      Max   : 3000.000       
Linear constraints   :
  Nonzeros           : Min   : 0.008333333      Max   : 1000000.       
  RHS nonzeros       : Min   : 0.008333333      Max   : 1000000.       
CPLEX> CPXPARAM_Parallel                                -1
CPXPARAM_Simplex_Tolerances_Feasibility          1.0000000000000001e-09
CPXPARAM_DetTimeLimit                            150000
CPXPARAM_MIP_Tolerances_MIPGap                   0.001
1 of 1 MIP starts provided solutions.
MIP start 'm1' defined initial solution with objective 0.0000.
Tried aggregator 3 times.
MIP Presolve eliminated 180490 rows and 42104 columns.
MIP Presolve added 6226 rows and 0 columns.
MIP Presolve modified 51107 coefficients.
Aggregator did 25917 substitutions.
Reduced MIP has 46720 rows, 39702 columns, and 156224 nonzeros.
Reduced MIP has 15652 binaries, 0 generals, 0 SOSs, and 0 indicators.
Presolve time = 0.64 sec. (380.23 ticks)
Probing fixed 793 vars, tightened 8672 bounds.
Probing time = 0.39 sec. (14.73 ticks)
Tried aggregator 2 times.
MIP Presolve eliminated 1780 rows and 1587 columns.
MIP Presolve modified 5547 coefficients.
Aggregator did 48 substitutions.
Reduced MIP has 44892 rows, 38067 columns, and 150787 nonzeros.
Reduced MIP has 14859 binaries, 0 generals, 0 SOSs, and 0 indicators.
Presolve time = 0.25 sec. (229.41 ticks)
Probing fixed 1 vars, tightened 412 bounds.
Probing time = 0.55 sec. (18.61 ticks)
Clique table members: 87747.
MIP emphasis: balance optimality and feasibility.
MIP search method: dynamic search.
Parallel mode: opportunistic, using up to 32 threads.
Root relaxation solution time = 1.25 sec. (1957.18 ticks)

        Nodes                                         Cuts/
   Node  Left     Objective  IInf  Best Integer    Best Bound    ItCnt     Gap

*     0+    0                            0.0000   1.03852e+07              --- 
      0     0    20682.4535   527        0.0000    20682.4535    10866     --- 
      0     0    19090.6374   391        0.0000     Cuts: 386    11484     --- 
      0     0    19089.2716   411        0.0000     Cuts: 392    11656     --- 
      0     0    19089.2716   411        0.0000     Cuts: 362    11761     --- 
      0     0    19089.2716   251        0.0000     Cuts: 278    11803     --- 
      0     0    18458.8070   245        0.0000      Cuts: 21    11815     --- 
      0     0    18458.8070   243        0.0000       Cuts: 7    11839     --- 
      0     6        cutoff              0.0000       Cuts: 7    12001     --- 
Elapsed time = 11.83 sec. (6839.53 ticks, tree = 0.02 MB, solutions = 1)
     62    48    17736.0336   181        0.0000    18387.3452    13241     --- 
    251    50    15277.2608   154        0.0000    18387.3452    13606     --- 
    558    56    11747.2036   146        0.0000    18387.3452    13343     --- 
    893    80    11572.0819    63        0.0000    18387.3452    15235     --- 
   1210    89    11303.4878    69        0.0000    18387.3452    15311     --- 
   1507   271     6877.1813    60        0.0000    18387.3452    20303     --- 
   1779   456     4616.5028    40        0.0000    18387.3452    26274     --- 
   2059   807        cutoff              0.0000    18387.3452    48186     --- 
   2331   819     1942.8921    12        0.0000    18387.3452    49923     --- 
   3450   945     1045.6505    10        0.0000    17236.2933    61158     --- 
Elapsed time = 31.81 sec. (9949.17 ticks, tree = 8.10 MB, solutions = 1)
   4542  1209      619.3730    15        0.0000    14749.8800    85724     --- 
   5775  1656     1473.2462     8        0.0000    14593.9749   109332     --- 
   7123  2571      731.5501     4        0.0000    10014.2933   185215     --- 
   7999  2817      394.6770    18        0.0000     9526.1658   221668     --- 
   8117  2824     1529.5817    73        0.0000     9526.1658   222979     --- 
*  8129     0      integral     0       -0.0000       -0.0000   240379    0.00%

Cover cuts applied:  1
Implied bound cuts applied:  70
Flow cuts applied:  419
Mixed integer rounding cuts applied:  97
Gomory fractional cuts applied:  10

Root node processing (before b&c):
  Real time             =    8.86 sec. (6794.31 ticks)
Parallel b&c, 32 threads:
  Real time             =   48.91 sec. (11487.11 ticks)
  Sync time (average)   =    1.37 sec.
  Wait time (average)   =    0.00 sec.
                          ------------
Total (root+branch&cut) =   57.77 sec. (18281.41 ticks)

Solution pool: 1 solution saved.

MIP - Integer optimal solution:  Objective =  0.0000000000e+00
Solution time =   57.78 sec.  Iterations = 240379  Nodes = 8129
Deterministic time = 18281.73 ticks  (316.39 ticks/sec)

CPLEX> Incumbent solution written to file 'C:\Users\llavin\Desktop\test826\logs\tmpweund2c_.cplex.sol'.
CPLEX> Exporting results... 
